objective value:                                  -19
t_n_1                                               1 	(obj:-1)
t_n_219                                             1 	(obj:-1)
t_n_330                                             1 	(obj:-1)
t_n_380                                             1 	(obj:-1)
t_n_436                                             1 	(obj:-1)
t_n_471                                             1 	(obj:-1)
t_n_600                                             1 	(obj:-1)
t_n_622                                             1 	(obj:-1)
t_n_624                                             1 	(obj:-1)
t_n_632                                             1 	(obj:-1)
t_n_648                                             1 	(obj:-1)
t_n_698                                             1 	(obj:-1)
t_n_714                                             1 	(obj:-1)
t_n_715                                             1 	(obj:-1)
t_n_721                                             1 	(obj:-1)
t_n_722                                             1 	(obj:-1)
t_n_785                                             1 	(obj:-1)
t_n_820                                             1 	(obj:-1)
t_n_971                                             1 	(obj:-1)
